NAME: tsp30_7
COMMENT: 30-tsp problem (Padberg/Rinaldi)
TYPE: TSP
DIMENSION: 30
EDGE_WEIGHT_TYPE : EUC_2D
NODE_COORD_SECTION
1 4 25
2 6 6
3 10 3
4 9 36
5 35 18
6 30 34
7 1 13
8 4 35
9 28 30
10 9 22
11 15 19
12 38 33
13 22 36
14 6 18
15 27 11
16 16 29
17 38 19
18 32 5
19 24 35
20 38 8
21 30 6
22 36 4
23 19 37
24 37 19
25 38 15
26 32 23
27 9 37
28 8 39
29 20 3
30 11 4
